
Gurobi 10.0.1 (win64) logging started Tue May  2 04:17:03 2023

Set parameter LogFile to value "logFiles/N-1L-A/N-1L-16U-28F-23V-300D-basic.log"
Gurobi Optimizer version 10.0.1 build v10.0.1rc0 (win64)

CPU model: Intel(R) Core(TM) i7-10700 CPU @ 2.90GHz, instruction set [SSE2|AVX|AVX2]
Thread count: 8 physical cores, 16 logical processors, using up to 16 threads

Optimize a model with 256932 rows, 3177677 columns and 19999962 nonzeros
Model fingerprint: 0xab466e63
Variable types: 8845 continuous, 3168832 integer (3168832 binary)
Coefficient statistics:
  Matrix range     [1e+00, 2e+05]
  Objective range  [4e+01, 3e+07]
  Bounds range     [1e+00, 1e+00]
  RHS range        [1e+00, 4e+06]
Presolve removed 123203 rows and 70000 columns (presolve time = 5s) ...
Presolve removed 131199 rows and 72123 columns (presolve time = 10s) ...
Presolve removed 134775 rows and 72123 columns (presolve time = 15s) ...
Presolve removed 134801 rows and 72199 columns (presolve time = 20s) ...
Presolve removed 134866 rows and 72264 columns (presolve time = 25s) ...
Presolve removed 134866 rows and 72264 columns (presolve time = 30s) ...
Presolve removed 136892 rows and 74218 columns (presolve time = 35s) ...
Presolve removed 136856 rows and 74182 columns
Presolve time: 35.85s
Presolved: 120076 rows, 3103495 columns, 18028027 nonzeros
Variable types: 5221 continuous, 3098274 integer (3098274 binary)
Deterministic concurrent LP optimizer: primal simplex, dual simplex, and barrier
Showing barrier log only...

Root barrier log...

Elapsed ordering time = 5s
Ordering time: 7.84s

Barrier statistics:
 AA' NZ     : 8.410e+06
 Factor NZ  : 3.818e+07 (roughly 1.6 GB of memory)
 Factor Ops : 1.002e+11 (roughly 1 second per iteration)
 Threads    : 5

                  Objective                Residual
Iter       Primal          Dual         Primal    Dual     Compl     Time
   0  -1.85709470e+17  3.27377916e+12  1.78e+10 5.31e+04  2.99e+11    93s
   1  -3.34692117e+16  5.31017287e+12  3.22e+09 1.43e+05  5.42e+10    98s
   2  -8.21385169e+14  4.00965711e+12  7.97e+07 1.86e-09  1.35e+09   103s
   3  -4.92685869e+13  3.23462855e+12  4.78e+06 1.86e-09  8.14e+07   109s
   4  -6.70790510e+12  2.62637395e+12  6.51e+05 1.63e-09  1.16e+07   117s
   5  -6.62881580e+11  2.14544131e+12  6.52e+04 7.26e-08  1.48e+06   122s
   6  -1.58615381e+11  1.24154187e+12  1.68e+04 3.56e-08  4.54e+05   126s
   7  -1.00181831e+11  9.18122970e+11  1.12e+04 3.38e-08  3.03e+05   130s
   8  -5.08729612e+10  5.11165240e+11  6.38e+03 2.60e-08  1.59e+05   134s
   9  -1.28693463e+10  2.70505997e+11  2.70e+03 1.06e-08  7.07e+04   138s
  10   1.09932535e+10  9.10735933e+10  3.86e+02 1.08e-08  1.59e+04   143s
  11   1.31469523e+10  5.75367398e+10  1.78e+02 7.54e-09  8.41e+03   148s
  12   1.41581886e+10  3.79473872e+10  8.11e+01 5.65e-09  4.40e+03   155s
  13   1.43735553e+10  3.30164355e+10  6.14e+01 8.57e-09  3.43e+03   160s
  14   1.45453198e+10  2.93076501e+10  4.53e+01 8.74e-09  2.69e+03   165s
  15   1.45728722e+10  2.86428489e+10  4.31e+01 1.13e-08  2.56e+03   169s
  16   1.45999734e+10  2.83298870e+10  4.08e+01 1.06e-08  2.49e+03   174s
  17   1.46788640e+10  2.69802575e+10  3.44e+01 1.81e-08  2.22e+03   179s
  18   1.47349095e+10  2.58651966e+10  2.98e+01 1.71e-08  2.00e+03   185s
  19   1.48563430e+10  2.42409168e+10  2.02e+01 1.66e-08  1.66e+03   192s
  20   1.48892345e+10  2.33309059e+10  1.78e+01 2.29e-08  1.49e+03   199s
  21   1.49401417e+10  2.17942486e+10  1.43e+01 3.33e-08  1.22e+03   206s
  22   1.49708067e+10  1.99981039e+10  1.17e+01 3.56e-08  9.19e+02   214s
  23   1.49978767e+10  1.94220426e+10  9.49e+00 4.05e-08  8.08e+02   220s
  24   1.50105912e+10  1.90782356e+10  8.64e+00 3.97e-08  7.44e+02   228s
  25   1.50219468e+10  1.88076659e+10  7.60e+00 4.60e-08  6.89e+02   235s
  26   1.50222381e+10  1.87237888e+10  7.58e+00 5.14e-08  6.76e+02   241s
  27   1.50337312e+10  1.86478654e+10  6.82e+00 5.53e-08  6.54e+02   246s
  28   1.50420668e+10  1.83393798e+10  6.26e+00 6.09e-08  5.98e+02   254s
  29   1.50526259e+10  1.79483650e+10  5.39e+00 6.22e-08  5.23e+02   261s
  30   1.50618736e+10  1.75968440e+10  4.69e+00 7.62e-08  4.56e+02   267s
  31   1.50706883e+10  1.72544043e+10  4.05e+00 6.37e-08  3.90e+02   274s
  32   1.50854416e+10  1.69000135e+10  3.09e+00 7.75e-08  3.19e+02   282s
  33   1.50923696e+10  1.65902582e+10  2.65e+00 8.34e-08  2.62e+02   289s
  34   1.51057434e+10  1.65037525e+10  1.76e+00 8.18e-08  2.38e+02   296s
  35   1.51078736e+10  1.61093531e+10  1.61e+00 6.11e-08  1.71e+02   301s

Barrier performed 35 iterations in 300.94 seconds (200.69 work units)
Time limit reached



Root relaxation: time limit, 0 iterations, 254.12 seconds (92.27 work units)

Explored 1 nodes (0 simplex iterations) in 301.72 seconds (184.58 work units)
Thread count was 16 (of 16 available processors)

Solution count 0

Time limit reached
Best objective -, best bound 2.328064422941e+13, gap -
IIS computation: initial model status unknown, solving to determine model status
Presolve removed 120056 rows and 66853 columns (presolve time = 5s) ...
Presolve removed 131281 rows and 74181 columns (presolve time = 10s) ...
Presolve removed 136892 rows and 74181 columns (presolve time = 15s) ...
Presolve removed 136892 rows and 74453 columns (presolve time = 20s) ...
Presolve removed 136892 rows and 74453 columns (presolve time = 25s) ...
Presolve removed 136892 rows and 74453 columns (presolve time = 30s) ...
Presolve removed 136892 rows and 74453 columns (presolve time = 35s) ...
Presolve removed 136856 rows and 74417 columns
Presolve time: 38.29s
Presolved: 120076 rows, 3103260 columns, 18026617 nonzeros
Variable types: 5221 continuous, 3098039 integer (3098039 binary)
Deterministic concurrent LP optimizer: primal simplex, dual simplex, and barrier
Showing barrier log only...

Root barrier log...

Elapsed ordering time = 5s
Ordering time: 8.52s

Barrier statistics:
 AA' NZ     : 8.410e+06
 Factor NZ  : 3.818e+07 (roughly 1.6 GB of memory)
 Factor Ops : 1.002e+11 (roughly 1 second per iteration)
 Threads    : 5

                  Objective                Residual
Iter       Primal          Dual         Primal    Dual     Compl     Time
   0  -0.00000000e+00  2.40826045e+05  1.78e+10 0.00e+00  1.98e+04    81s
   1  -0.00000000e+00  3.90982836e+05  2.73e+09 5.04e-03  3.05e+03    85s
   2  -0.00000000e+00  2.84020703e+05  1.43e+07 2.22e-16  1.60e+01    89s
   3  -0.00000000e+00  2.24535776e+05  1.14e+07 1.11e-16  1.28e+01    94s
   4  -0.00000000e+00  3.00688917e+04  3.56e+05 2.19e-17  6.58e-02   100s
   5  -0.00000000e+00  5.65637353e+03  7.32e+04 7.55e-16  4.40e-03   105s
   6  -0.00000000e+00  3.59996934e+03  4.20e+04 5.31e-16  2.11e-03   109s
   7  -0.00000000e+00  1.93023581e+03  1.53e+04 2.13e-16  7.10e-04   113s
   8  -0.00000000e+00  6.44149310e+02  8.33e+03 2.62e-16  2.46e-04   116s
   9  -0.00000000e+00  3.28244736e+02  2.30e+03 1.31e-16  8.37e-05   120s
  10  -0.00000000e+00  7.99321347e+01  3.34e+02 8.06e-09  1.62e-05   124s
  11  -0.00000000e+00  5.21524453e+01  1.24e+02 9.60e-09  9.56e-06   129s
  12  -0.00000000e+00  3.12265340e+01  8.20e+01 9.91e-09  5.77e-06   135s
  13  -0.00000000e+00  2.46429600e+01  5.71e+01 8.98e-09  4.49e-06   140s
  14  -0.00000000e+00  2.41700759e+01  4.69e+01 8.40e-09  4.32e-06   144s
  15  -0.00000000e+00  2.00626156e+01  4.26e+01 9.10e-09  3.63e-06   148s
  16  -0.00000000e+00  1.82167686e+01  3.76e+01 4.82e-09  3.29e-06   152s
  17  -0.00000000e+00  1.63126387e+01  3.20e+01 4.02e-09  2.93e-06   157s
  18  -0.00000000e+00  1.32665048e+01  2.41e+01 7.85e-09  2.38e-06   163s
  19  -0.00000000e+00  1.11672150e+01  2.21e+01 1.23e-08  2.02e-06   169s
  20  -0.00000000e+00  8.72201545e+00  1.38e+01 1.76e-08  1.55e-06   175s
  21  -0.00000000e+00  8.16622991e+00  1.01e+01 2.33e-08  1.43e-06   181s
  22  -0.00000000e+00  6.97987114e+00  7.29e+00 3.42e-08  1.22e-06   187s
  23  -0.00000000e+00  5.85134751e+00  5.65e+00 4.57e-08  1.03e-06   193s
  24  -0.00000000e+00  4.07542245e+00  3.55e+00 6.06e-08  7.09e-07   198s
  25  -0.00000000e+00  2.67062072e+00  2.38e+00 5.72e-08  4.58e-07   204s
  26  -0.00000000e+00  1.12898239e+00  8.15e-01 4.67e-08  1.88e-07   210s
  27  -0.00000000e+00  2.18507028e-01  8.60e-02 2.02e-08  3.72e-08   216s
  28  -0.00000000e+00  7.48715445e-02  2.85e-03 9.36e-09  1.32e-08   221s
  29  -0.00000000e+00  4.80422341e-05  1.04e-05 3.89e-11  2.04e-11   225s
  30  -0.00000000e+00  1.45432986e-09  2.13e-10 1.18e-15  6.16e-16   229s

Barrier solved model in 30 iterations and 229.57 seconds (201.52 work units)
Optimal objective -0.00000000e+00

  Building initial crossover basis                               261s
  Building initial crossover basis                               267s
  Building initial crossover basis                               273s
  Building initial crossover basis                               277s
  Building initial crossover basis                               282s
  Building initial crossover basis                               286s
  Building initial crossover basis                               293s
  Building initial crossover basis                               297s
  Building initial crossover basis                               301s


Root relaxation: time limit, 0 iterations, 249.15 seconds (143.77 work units)

Explored 1 nodes (0 simplex iterations) in 301.52 seconds (238.27 work units)
Thread count was 16 (of 16 available processors)

Solution count 0

Time limit reached
Best objective -, best bound -0.000000000000e+00, gap -
IIS runtime: 301.79 seconds (238.27 work units)
